experiment/data/lkh-res/Vrp-Set-A-n63/Vrp-Set-A-n63-lkh/0.lkh1.vrp
NAME : 0
COMMENT : CVRP Instance
TYPE : CVRP
DIMENSION : 63
EDGE_WEIGHT_TYPE : EUC_2D
CAPACITY : 100
NODE_COORD_SECTION
1	7600	7500
2	6000	1400
3	4600	500
4	9100	1400
5	7000	9500
6	8600	3100
7	2000	0
8	4100	5500
9	2100	1500
10	4600	100
11	9500	4500
12	1600	8900
13	4100	100
14	6000	9400
15	5500	2500
16	7100	4100
17	3900	3500
18	6100	7000
19	8000	3600
20	10000	2600
21	6500	8500
22	4000	5100
23	1900	7100
24	3400	5000
25	3600	6100
26	6900	5000
27	6100	9400
28	1900	1100
29	5100	9100
30	6100	5400
31	7600	9000
32	4100	7500
33	3500	10000
34	100	4000
35	1500	9100
36	2100	1100
37	7900	8100
38	3400	3600
39	7400	9900
40	7500	1400
41	6500	5400
42	5500	1000
43	10000	600
44	9900	9100
45	2500	8600
46	7500	1600
47	3000	4500
48	2100	8500
49	7500	8000
50	7100	3500
51	5600	8100
52	2500	7600
53	8500	7600
54	6000	3400
55	4100	4400
56	600	5500
57	6000	5400
58	4000	9600
59	2000	7100
60	9400	4500
61	3100	4100
62	4000	4900
63	5600	8000
DEMAND_SECTION
1	0
2	11
3	20
4	26
5	17
6	5
7	17
8	1
9	15
10	16
11	22
12	2
13	22
14	25
15	20
16	20
17	21
18	26
19	12
20	5
21	11
22	5
23	21
24	17
25	12
26	12
27	15
28	21
29	12
30	2
31	17
32	16
33	15
34	26
35	12
36	22
37	16
38	21
39	16
40	2
41	6
42	2
43	6
44	10
45	11
46	1
47	63
48	10
49	21
50	7
51	1
52	6
53	26
54	17
55	10
56	25
57	25
58	25
59	16
60	5
61	22
62	17
63	6
DEPOT_SECTION
1
-1
EOF
