experiment/data/lkh-res/Vrp-Set-A-n63/Vrp-Set-A-n63-lkh/0.lkh1.tour
NAME : 0.131346.tour
COMMENT : Length = 131346
COMMENT : Found by LKH-3 [Keld Helsgaun] Tue Apr  9 00:48:32 2024
TYPE : TOUR
DIMENSION : 72
TOUR_SECTION
1
9
36
28
7
13
42
67
55
17
38
61
62
22
69
63
51
52
45
48
12
35
33
58
29
66
21
14
27
5
39
37
64
32
47
24
8
70
25
34
56
23
59
72
49
31
44
53
65
54
15
3
10
2
40
46
19
71
26
41
30
57
18
68
16
50
6
4
43
20
11
60
-1
EOF
